c instance by G2
c solution = 11001010101100111011111
c Known solution cost is 1041 
p cnf 23 30
w 32 21 73 56 28 6 19 36 61 60 71 99 85 19 15 86 18 60 43 50 3 16 84
22 4 -5 0
-21 -1 12 0
10 -5 -14 0
8 -22 -6 0
-12 -5 -3 0
15 13 -11 0
14 -7 20 0
6 19 -16 0
3 6 -18 0
-16 -10 -1 0
-13 -11 4 0
-10 -1 -20 0
-4 -9 -12 0
7 -23 -12 0
-11 -1 -14 0
-22 21 -9 0
-9 -20 23 0
-8 -5 -1 0
16 11 8 0
18 7 -12 0
-1 -23 9 0
9 -12 14 0
-15 -7 11 0
5 14 -15 0
-14 12 -18 0
11 8 10 0
16 -20 -5 0
3 18 1 0
-7 2 -23 0
17 -1 -2 0
